
Gurobi 11.0.3 (linux64) logging started Mon Aug 25 13:19:48 2025

Set parameter LogFile to value "/home/yihong/Coding/OR_SUC/SUC_epstheta_results_bigM100000_thread4/case24_ieee_rts_theta0.1_epsilon0.1_gurobi_seed150000_num_gen100_N_WDR50_load_scaling_factor1_proposed_eps_T2quadra_cost_bc1.03.txt"
Set parameter TimeLimit to value 3600
Gurobi Optimizer version 11.0.3 build v11.0.3rc0 (linux64 - "Ubuntu 20.04.6 LTS")

CPU model: AMD EPYC 7532 32-Core Processor, instruction set [SSE2|AVX|AVX2]
Thread count: 64 physical cores, 128 logical processors, using up to 4 threads

Academic license 2399124 - for non-commercial use only - registered to yi___@ed.ac.uk
Optimize a model with 4290 rows, 2531 columns and 107910 nonzeros
Model fingerprint: 0x30b7b387
Model has 200 quadratic constraints
Variable types: 2331 continuous, 200 integer (200 binary)
Coefficient statistics:
  Matrix range     [3e-04, 2e+03]
  QMatrix range    [2e-03, 8e-03]
  QLMatrix range   [1e-01, 6e+01]
  Objective range  [1e+00, 1e+00]
  Bounds range     [1e+00, 1e+00]
  RHS range        [1e+00, 9e+03]
Presolve removed 3707 rows and 1273 columns
Presolve time: 0.02s
Presolved: 583 rows, 1258 columns, 4474 nonzeros
Presolved model has 200 quadratic constraint(s)
Variable types: 1058 continuous, 200 integer (200 binary)

Root relaxation: objective 2.055941e+03, 465 iterations, 0.00 seconds (0.00 work units)

    Nodes    |    Current Node    |     Objective Bounds      |     Work
 Expl Unexpl |  Obj  Depth IntInf | Incumbent    BestBd   Gap | It/Node Time

     0     0 2055.94092    0    4          - 2055.94092      -     -    0s
     0     0 15560.4880    0   75          - 15560.4880      -     -    0s
     0     0 48425.1117    0   34          - 48425.1117      -     -    0s
     0     0 48427.5122    0   34          - 48427.5122      -     -    0s
     0     0 48455.3102    0    6          - 48455.3102      -     -    0s
     0     0 48456.1129    0    6          - 48456.1129      -     -    0s
     0     0 48456.1129    0    6          - 48456.1129      -     -    0s
     0     2 48456.1129    0    6          - 48456.1129      -     -    0s
H   37    38                    48485.039187 48457.4313  0.06%   6.4    0s
*   37    38               8    48485.039187 48457.4313  0.06%   6.5    0s

Cutting planes:
  Gomory: 11
  Implied bound: 50
  MIR: 23
  Flow cover: 83

Explored 39 nodes (1711 simplex iterations) in 0.25 seconds (0.13 work units)
Thread count was 4 (of 128 available processors)

Solution count 1: 48485 

Optimal solution found (tolerance 1.00e-03)
Warning: max constraint violation (6.0872e-09) exceeds tolerance
Best objective 4.848503918736e+04, best bound 4.845743125434e+04, gap 0.0569%

Gurobi 11.0.3 (linux64) logging started Mon Aug 25 13:19:48 2025

Set parameter LogFile to value "/home/yihong/Coding/OR_SUC/SUC_epstheta_results_bigM100000_thread4/case24_ieee_rts_theta0.1_epsilon0.1_gurobi_seed150000_num_gen100_N_WDR50_load_scaling_factor1_proposed_eps_T2quadra_cost_bc1.03.txt"
Set parameter TimeLimit to value 3600
Gurobi Optimizer version 11.0.3 build v11.0.3rc0 (linux64 - "Ubuntu 20.04.6 LTS")

CPU model: AMD EPYC 7532 32-Core Processor, instruction set [SSE2|AVX|AVX2]
Thread count: 64 physical cores, 128 logical processors, using up to 4 threads

Academic license 2399124 - for non-commercial use only - registered to yi___@ed.ac.uk
Optimize a model with 4290 rows, 2532 columns and 108479 nonzeros
Model fingerprint: 0x41f3176d
Model has 201 quadratic constraints
Variable types: 2332 continuous, 200 integer (200 binary)
Coefficient statistics:
  Matrix range     [3e-04, 2e+03]
  QMatrix range    [2e-03, 5e+01]
  QLMatrix range   [1e-01, 6e+01]
  Objective range  [1e+00, 1e+00]
  Bounds range     [1e-01, 1e+00]
  RHS range        [1e+00, 5e+04]
  QRHS range       [5e+00, 5e+00]
Presolve removed 3489 rows and 1164 columns
Presolve time: 0.03s
Presolved: 1003 rows, 1568 columns, 6386 nonzeros
Presolved model has 200 quadratic constraint(s)
Presolved model has 1 bilinear constraint(s)

Solving non-convex MIQCP

Variable types: 1364 continuous, 204 integer (204 binary)

Root relaxation: objective 1.390403e-03, 1484 iterations, 0.02 seconds (0.03 work units)

    Nodes    |    Current Node    |     Objective Bounds      |     Work
 Expl Unexpl |  Obj  Depth IntInf | Incumbent    BestBd   Gap | It/Node Time

     0     0    0.00139    0    3          -    0.00139      -     -    0s
     0     0    0.00139    0    3          -    0.00139      -     -    0s
     0     0    0.00139    0    4          -    0.00139      -     -    0s
     0     0    0.00139    0    4          -    0.00139      -     -    0s
H    0     0                       0.0143395    0.00139  90.3%     -    0s
     0     0    0.01291    0    4    0.01434    0.01291  10.0%     -    0s
     0     2    0.01291    0    4    0.01434    0.01291  10.0%     -    0s
H  192   188                       0.0135027    0.01294  4.16%   4.9    0s
*  192   188              49       0.0135027    0.01294  4.16%   4.9    0s
*  223   205              51       0.0134775    0.01297  3.79%   5.4    0s
*  226   205              52       0.0134766    0.01297  3.78%   5.4    0s
*  232   205              55       0.0134763    0.01297  3.78%   5.2    0s
H  262   224                       0.0133693    0.01297  3.01%   5.3    0s
*  262   224              19       0.0133693    0.01297  3.01%   5.3    0s
H  358   233                       0.0133300    0.01302  2.31%   5.8    0s
*  358   233              10       0.0133300    0.01302  2.31%   5.8    0s
H  419   233                       0.0133260    0.01303  2.21%   5.7    0s
*  419   233              10       0.0133260    0.01303  2.21%   5.7    0s
H  483   211                       0.0132932    0.01307  1.68%   5.5    0s
*  483   211              11       0.0132932    0.01307  1.68%   5.5    0s
H  506   211                       0.0131767    0.01307  0.81%   5.2    0s
*  506   211              11       0.0131767    0.01307  0.81%   5.2    0s
H  548    49                       0.0131752    0.01307  0.80%   5.2    0s
H  564    46                       0.0131745    0.01313  0.32%   5.1    1s
H  564    43                       0.0131739    0.01314  0.28%   5.1    1s

Cutting planes:
  Implied bound: 11
  MIR: 3
  Flow cover: 4
  Inf proof: 2
  Relax-and-lift: 4

Explored 564 nodes (6022 simplex iterations) in 1.44 seconds (1.51 work units)
Thread count was 4 (of 128 available processors)

Solution count 10: 0.0131739 0.0131745 0.0131752 ... 0.0134766

Optimal solution found (tolerance 1.00e-03)
Best objective 1.317388668459e-02, best bound 1.317388668459e-02, gap 0.0000%
